p cnf 12 17 
c Factors encoded in variables 1-6 and 7-12
c Target number: 3599
c Factors: 61 x 59
-3 -9 0
3 2 0
1 0
-3 -2 0
2 8 0
9 8 0
4 0
10 0
5 0
-3 -2 -9 0
11 0
6 0
12 0
7 0
3 9 0
-9 -8 0
-2 -8 0
